
Gurobi 10.0.1 (win64) logging started Sat Dec 30 18:35:38 2023

Set parameter LogFile to value "outputs/THESIS/symmetry1/gurobi/20weeks_ramping.txt"

Gurobi 10.0.1 (win64) logging started Sat Dec 30 18:35:47 2023

Set parameter LogFile to value "outputs/THESIS/symmetry1/gurobi/20weeks_ramping.txt"
Gurobi Optimizer version 10.0.1 build v10.0.1rc0 (win64)

CPU model: AMD Ryzen 7 5700U with Radeon Graphics, instruction set [SSE2|AVX|AVX2]
Thread count: 8 physical cores, 16 logical processors, using up to 16 threads

Optimize a model with 1145548 rows, 574669 columns and 4024747 nonzeros
Model fingerprint: 0xd7403da8
Coefficient statistics:
  Matrix range     [1e-04, 1e+04]
  Objective range  [1e+00, 1e+00]
  Bounds range     [1e+02, 7e+04]
  RHS range        [1e+03, 7e+04]
Presolve removed 2 rows and 2 columns
Presolve time: 2.32s
Presolved: 1145546 rows, 574667 columns, 3597918 nonzeros

Ordering time: 1.97s

Barrier statistics:
 Dense cols : 20
 AA' NZ     : 1.290e+06
 Factor NZ  : 8.539e+06 (roughly 300 MB of memory)
 Factor Ops : 6.036e+08 (less than 1 second per iteration)
 Threads    : 8

                  Objective                Residual
Iter       Primal          Dual         Primal    Dual     Compl     Time
   0   7.48735092e+09 -4.89866301e+10  2.21e+04 9.43e+00  9.11e+05     6s
   1   1.57931697e+09 -3.81891040e+10  1.75e+03 2.14e+01  1.17e+05     7s
   2   1.10637743e+09 -6.90760500e+09  1.00e-11 1.43e+00  1.33e+04     7s
   3   2.89633512e+08 -2.57389699e+08  1.82e-10 6.46e-03  8.31e+02     7s
   4   4.82188891e+07 -1.53401265e+07  2.18e-11 1.70e-03  9.22e+01     7s
   5   4.06099205e+07 -6.53442983e+06  7.09e-11 1.20e-03  6.82e+01     7s
   6   2.93913809e+07  2.33748915e+06  5.42e-10 1.01e-14  3.89e+01     8s
   7   2.60658565e+07  3.43612371e+06  2.13e-09 1.05e-14  3.26e+01     8s
   8   2.29244603e+07  6.13983798e+06  3.75e-09 3.28e-05  2.41e+01     8s
   9   2.06627201e+07  7.21133683e+06  1.89e-08 4.92e-05  1.93e+01     8s
  10   2.00021685e+07  7.52399761e+06  3.35e-08 4.83e-05  1.79e+01     8s
  11   1.84274201e+07  8.39231895e+06  8.00e-08 4.42e-05  1.44e+01     9s
  12   1.75784364e+07  8.63307806e+06  1.30e-07 3.61e-05  1.28e+01     9s
  13   1.67419341e+07  9.21300282e+06  1.47e-07 3.13e-05  1.08e+01     9s
  14   1.61581546e+07  9.87865241e+06  1.30e-07 2.51e-05  9.01e+00     9s
  15   1.55313736e+07  1.02451327e+07  8.59e-08 1.59e-05  7.59e+00    10s
  16   1.51795587e+07  1.03339554e+07  7.39e-08 1.40e-05  6.95e+00    10s
  17   1.47587852e+07  1.05278162e+07  8.21e-08 1.28e-05  6.07e+00    10s
  18   1.45465608e+07  1.08508814e+07  6.91e-08 7.00e-06  5.30e+00    10s
  19   1.42882059e+07  1.10781936e+07  7.08e-08 6.02e-06  4.61e+00    10s
  20   1.40173136e+07  1.13102205e+07  1.45e-07 2.54e-06  3.89e+00    11s
  21   1.38347728e+07  1.15385405e+07  8.97e-08 1.97e-06  3.30e+00    11s
  22   1.36463009e+07  1.16491794e+07  7.53e-08 3.64e-07  2.87e+00    11s
  23   1.35962922e+07  1.18144966e+07  8.80e-08 1.01e-14  2.56e+00    11s
  24   1.34823332e+07  1.19326835e+07  9.25e-08 1.01e-14  2.22e+00    12s
  25   1.33654627e+07  1.19616949e+07  4.04e-07 1.06e-14  2.02e+00    12s
  26   1.32893311e+07  1.20814503e+07  7.10e-07 1.08e-14  1.73e+00    12s
  27   1.32445417e+07  1.22400290e+07  7.86e-07 1.06e-14  1.44e+00    12s
  28   1.30884088e+07  1.23457140e+07  7.63e-07 9.80e-15  1.07e+00    13s
  29   1.30385947e+07  1.24126028e+07  8.10e-07 9.57e-15  8.98e-01    13s
  30   1.29705643e+07  1.25023938e+07  1.29e-06 8.80e-15  6.72e-01    13s
  31   1.29120045e+07  1.25352084e+07  9.87e-07 1.07e-14  5.41e-01    13s
  32   1.28999428e+07  1.25863929e+07  1.01e-06 8.94e-15  4.50e-01    14s
  33   1.28677069e+07  1.25984739e+07  8.91e-07 9.37e-15  3.86e-01    14s
  34   1.28264892e+07  1.26331632e+07  4.62e-07 9.19e-15  2.77e-01    14s
  35   1.28137402e+07  1.26726967e+07  3.54e-07 9.96e-15  2.02e-01    14s
  36   1.27986313e+07  1.27034574e+07  4.81e-07 1.07e-14  1.36e-01    15s
  37   1.27856352e+07  1.27138724e+07  7.69e-07 8.96e-15  1.03e-01    15s
  38   1.27813146e+07  1.27183848e+07  5.59e-07 8.24e-15  9.02e-02    15s
  39   1.27599842e+07  1.27222650e+07  8.79e-07 8.88e-15  5.41e-02    15s
  40   1.27514628e+07  1.27244938e+07  7.51e-07 1.16e-14  3.87e-02    16s
  41   1.27449987e+07  1.27295389e+07  9.33e-07 9.82e-15  2.22e-02    16s
  42   1.27427025e+07  1.27310512e+07  6.31e-07 1.01e-14  1.67e-02    16s
  43   1.27399337e+07  1.27320086e+07  5.67e-07 1.12e-14  1.14e-02    16s
  44   1.27393254e+07  1.27327829e+07  4.91e-07 9.14e-15  9.38e-03    17s
  45   1.27378059e+07  1.27340538e+07  2.76e-07 9.49e-15  5.38e-03    17s
  46   1.27370793e+07  1.27346343e+07  1.89e-07 9.48e-15  3.50e-03    17s
  47   1.27368429e+07  1.27347789e+07  1.61e-07 8.85e-15  2.96e-03    17s
  48   1.27365519e+07  1.27351521e+07  1.24e-07 8.64e-15  2.00e-03    17s
  49   1.27359506e+07  1.27353003e+07  5.10e-08 9.97e-15  9.32e-04    18s
  50   1.27356719e+07  1.27354299e+07  1.69e-08 9.24e-15  3.47e-04    18s
  51   1.27355766e+07  1.27354741e+07  5.81e-09 1.07e-14  1.47e-04    18s
  52   1.27355385e+07  1.27355118e+07  1.58e-09 1.11e-14  3.83e-05    18s
  53   1.27355258e+07  1.27355199e+07  2.74e-10 1.05e-14  8.52e-06    18s
  54   1.27355231e+07  1.27355218e+07  1.82e-11 1.35e-11  1.93e-06    19s
  55   1.27355229e+07  1.27355228e+07  6.37e-12 2.46e-11  9.32e-08    19s
  56   1.27355229e+07  1.27355229e+07  1.79e-09 5.54e-10  4.02e-12    19s

Barrier solved model in 56 iterations and 18.91 seconds (12.48 work units)
Optimal objective 1.27355229e+07

Crossover log...

   14119 DPushes remaining with DInf 0.0000000e+00                19s
       0 DPushes remaining with DInf 0.0000000e+00                19s

    1261 PPushes remaining with PInf 0.0000000e+00                19s
       0 PPushes remaining with PInf 0.0000000e+00                19s

  Push phase complete: Pinf 0.0000000e+00, Dinf 7.1617035e-11     19s

Iteration    Objective       Primal Inf.    Dual Inf.      Time
    9813    1.2735523e+07   0.000000e+00   0.000000e+00     20s

Use crossover to convert LP symmetric solution to basic solution...
Crossover log...

       0 DPushes remaining with DInf 0.0000000e+00                21s

  226402 PPushes remaining with PInf 0.0000000e+00                21s
    7961 PPushes remaining with PInf 0.0000000e+00                25s
       0 PPushes remaining with PInf 0.0000000e+00                29s

  Push phase complete: Pinf 0.0000000e+00, Dinf 1.1508899e-10     29s

Iteration    Objective       Primal Inf.    Dual Inf.      Time
  236218    1.2735523e+07   0.000000e+00   0.000000e+00     30s

Solved in 236218 iterations and 30.50 seconds (22.42 work units)
Optimal objective  1.273552290e+07

User-callback calls 243547, time in user-callback 0.04 sec

Gurobi 10.0.1 (win64) logging started Sat Dec 30 18:36:21 2023

Set parameter LogFile to value "outputs/THESIS/symmetry1/gurobi/20weeks_ramping.txt"

Gurobi 10.0.1 (win64) logging started Sat Dec 30 18:36:31 2023

Set parameter LogFile to value "outputs/THESIS/symmetry1/gurobi/20weeks_ramping.txt"
Gurobi Optimizer version 10.0.1 build v10.0.1rc0 (win64)

CPU model: AMD Ryzen 7 5700U with Radeon Graphics, instruction set [SSE2|AVX|AVX2]
Thread count: 8 physical cores, 16 logical processors, using up to 16 threads

Optimize a model with 1145548 rows, 574669 columns and 4024747 nonzeros
Model fingerprint: 0xd7403da8
Coefficient statistics:
  Matrix range     [1e-04, 1e+04]
  Objective range  [1e+00, 1e+00]
  Bounds range     [1e+02, 7e+04]
  RHS range        [1e+03, 7e+04]
Presolve removed 2 rows and 2 columns
Presolve time: 2.22s
Presolved: 1145546 rows, 574667 columns, 3597918 nonzeros

Ordering time: 1.99s

Barrier statistics:
 Dense cols : 20
 AA' NZ     : 1.290e+06
 Factor NZ  : 8.539e+06 (roughly 300 MB of memory)
 Factor Ops : 6.036e+08 (less than 1 second per iteration)
 Threads    : 8

                  Objective                Residual
Iter       Primal          Dual         Primal    Dual     Compl     Time
   0   7.48735092e+09 -4.89866301e+10  2.21e+04 9.43e+00  9.11e+05     6s
   1   1.57931697e+09 -3.81891040e+10  1.75e+03 2.14e+01  1.17e+05     7s
   2   1.10637743e+09 -6.90760500e+09  1.00e-11 1.43e+00  1.33e+04     7s
   3   2.89633512e+08 -2.57389699e+08  1.82e-10 6.46e-03  8.31e+02     7s
   4   4.82188891e+07 -1.53401265e+07  2.18e-11 1.70e-03  9.22e+01     7s
   5   4.06099205e+07 -6.53442983e+06  7.09e-11 1.20e-03  6.82e+01     7s
   6   2.93913809e+07  2.33748915e+06  5.42e-10 1.01e-14  3.89e+01     8s
   7   2.60658565e+07  3.43612371e+06  2.13e-09 1.05e-14  3.26e+01     8s
   8   2.29244603e+07  6.13983798e+06  3.75e-09 3.28e-05  2.41e+01     8s
   9   2.06627201e+07  7.21133683e+06  1.89e-08 4.92e-05  1.93e+01     8s
  10   2.00021685e+07  7.52399761e+06  3.35e-08 4.83e-05  1.79e+01     8s
  11   1.84274201e+07  8.39231895e+06  8.00e-08 4.42e-05  1.44e+01     9s
  12   1.75784364e+07  8.63307806e+06  1.30e-07 3.61e-05  1.28e+01     9s
  13   1.67419341e+07  9.21300282e+06  1.47e-07 3.13e-05  1.08e+01     9s
  14   1.61581546e+07  9.87865241e+06  1.30e-07 2.51e-05  9.01e+00     9s
  15   1.55313736e+07  1.02451327e+07  8.59e-08 1.59e-05  7.59e+00     9s
  16   1.51795587e+07  1.03339554e+07  7.39e-08 1.40e-05  6.95e+00    10s
  17   1.47587852e+07  1.05278162e+07  8.21e-08 1.28e-05  6.07e+00    10s
  18   1.45465608e+07  1.08508814e+07  6.91e-08 7.00e-06  5.30e+00    10s
  19   1.42882059e+07  1.10781936e+07  7.08e-08 6.02e-06  4.61e+00    10s
  20   1.40173136e+07  1.13102205e+07  1.45e-07 2.54e-06  3.89e+00    11s
  21   1.38347728e+07  1.15385405e+07  8.97e-08 1.97e-06  3.30e+00    11s
  22   1.36463009e+07  1.16491794e+07  7.53e-08 3.64e-07  2.87e+00    11s
  23   1.35962922e+07  1.18144966e+07  8.80e-08 1.01e-14  2.56e+00    11s
  24   1.34823332e+07  1.19326835e+07  9.25e-08 1.01e-14  2.22e+00    12s
  25   1.33654627e+07  1.19616949e+07  4.04e-07 1.06e-14  2.02e+00    12s
  26   1.32893311e+07  1.20814503e+07  7.10e-07 1.08e-14  1.73e+00    12s
  27   1.32445417e+07  1.22400290e+07  7.86e-07 1.06e-14  1.44e+00    12s
  28   1.30884088e+07  1.23457140e+07  7.63e-07 9.80e-15  1.07e+00    13s
  29   1.30385947e+07  1.24126028e+07  8.10e-07 9.57e-15  8.98e-01    13s
  30   1.29705643e+07  1.25023938e+07  1.29e-06 8.80e-15  6.72e-01    13s
  31   1.29120045e+07  1.25352084e+07  9.87e-07 1.07e-14  5.41e-01    13s
  32   1.28999428e+07  1.25863929e+07  1.01e-06 8.94e-15  4.50e-01    13s
  33   1.28677069e+07  1.25984739e+07  8.91e-07 9.37e-15  3.86e-01    14s
  34   1.28264892e+07  1.26331632e+07  4.62e-07 9.19e-15  2.77e-01    14s
  35   1.28137402e+07  1.26726967e+07  3.54e-07 9.96e-15  2.02e-01    14s
  36   1.27986313e+07  1.27034574e+07  4.81e-07 1.07e-14  1.36e-01    14s
  37   1.27856352e+07  1.27138724e+07  7.69e-07 8.96e-15  1.03e-01    15s
  38   1.27813146e+07  1.27183848e+07  5.59e-07 8.24e-15  9.02e-02    15s
  39   1.27599842e+07  1.27222650e+07  8.79e-07 8.88e-15  5.41e-02    15s
  40   1.27514628e+07  1.27244938e+07  7.51e-07 1.16e-14  3.87e-02    15s
  41   1.27449987e+07  1.27295389e+07  9.33e-07 9.82e-15  2.22e-02    16s
  42   1.27427025e+07  1.27310512e+07  6.31e-07 1.01e-14  1.67e-02    16s
  43   1.27399337e+07  1.27320086e+07  5.67e-07 1.12e-14  1.14e-02    16s
  44   1.27393254e+07  1.27327829e+07  4.91e-07 9.14e-15  9.38e-03    16s
  45   1.27378059e+07  1.27340538e+07  2.76e-07 9.49e-15  5.38e-03    17s
  46   1.27370793e+07  1.27346343e+07  1.89e-07 9.48e-15  3.50e-03    17s
  47   1.27368429e+07  1.27347789e+07  1.61e-07 8.85e-15  2.96e-03    17s
  48   1.27365519e+07  1.27351521e+07  1.24e-07 8.64e-15  2.00e-03    17s
  49   1.27359506e+07  1.27353003e+07  5.10e-08 9.97e-15  9.32e-04    17s
  50   1.27356719e+07  1.27354299e+07  1.69e-08 9.24e-15  3.47e-04    18s
  51   1.27355766e+07  1.27354741e+07  5.81e-09 1.07e-14  1.47e-04    18s
  52   1.27355385e+07  1.27355118e+07  1.58e-09 1.11e-14  3.83e-05    18s
  53   1.27355258e+07  1.27355199e+07  2.74e-10 1.05e-14  8.52e-06    18s
  54   1.27355231e+07  1.27355218e+07  1.82e-11 1.35e-11  1.93e-06    18s
  55   1.27355229e+07  1.27355228e+07  6.37e-12 2.46e-11  9.32e-08    19s
  56   1.27355229e+07  1.27355229e+07  1.79e-09 5.54e-10  4.02e-12    19s

Barrier solved model in 56 iterations and 18.71 seconds (12.48 work units)
Optimal objective 1.27355229e+07

Crossover log...

   14119 DPushes remaining with DInf 0.0000000e+00                19s
       0 DPushes remaining with DInf 0.0000000e+00                19s

    1261 PPushes remaining with PInf 0.0000000e+00                19s
       0 PPushes remaining with PInf 0.0000000e+00                19s

  Push phase complete: Pinf 0.0000000e+00, Dinf 7.1617035e-11     19s

Iteration    Objective       Primal Inf.    Dual Inf.      Time
    9813    1.2735523e+07   0.000000e+00   0.000000e+00     19s

Use crossover to convert LP symmetric solution to basic solution...
Crossover log...

       0 DPushes remaining with DInf 0.0000000e+00                20s

  226402 PPushes remaining with PInf 0.0000000e+00                20s
    7961 PPushes remaining with PInf 0.0000000e+00                25s
       0 PPushes remaining with PInf 0.0000000e+00                29s

  Push phase complete: Pinf 0.0000000e+00, Dinf 1.1508899e-10     29s

Iteration    Objective       Primal Inf.    Dual Inf.      Time
  236218    1.2735523e+07   0.000000e+00   0.000000e+00     30s

Solved in 236218 iterations and 30.30 seconds (22.42 work units)
Optimal objective  1.273552290e+07

User-callback calls 243526, time in user-callback 0.05 sec

Gurobi 10.0.1 (win64) logging started Sat Dec 30 18:37:05 2023

Set parameter LogFile to value "outputs/THESIS/symmetry1/gurobi/20weeks_ramping.txt"

Gurobi 10.0.1 (win64) logging started Sat Dec 30 18:37:15 2023

Set parameter LogFile to value "outputs/THESIS/symmetry1/gurobi/20weeks_ramping.txt"
Gurobi Optimizer version 10.0.1 build v10.0.1rc0 (win64)

CPU model: AMD Ryzen 7 5700U with Radeon Graphics, instruction set [SSE2|AVX|AVX2]
Thread count: 8 physical cores, 16 logical processors, using up to 16 threads

Optimize a model with 1145548 rows, 574669 columns and 4024747 nonzeros
Model fingerprint: 0xd7403da8
Coefficient statistics:
  Matrix range     [1e-04, 1e+04]
  Objective range  [1e+00, 1e+00]
  Bounds range     [1e+02, 7e+04]
  RHS range        [1e+03, 7e+04]
Presolve removed 2 rows and 2 columns
Presolve time: 2.22s
Presolved: 1145546 rows, 574667 columns, 3597918 nonzeros

Ordering time: 1.94s

Barrier statistics:
 Dense cols : 20
 AA' NZ     : 1.290e+06
 Factor NZ  : 8.539e+06 (roughly 300 MB of memory)
 Factor Ops : 6.036e+08 (less than 1 second per iteration)
 Threads    : 8

                  Objective                Residual
Iter       Primal          Dual         Primal    Dual     Compl     Time
   0   7.48735092e+09 -4.89866301e+10  2.21e+04 9.43e+00  9.11e+05     6s
   1   1.57931697e+09 -3.81891040e+10  1.75e+03 2.14e+01  1.17e+05     6s
   2   1.10637743e+09 -6.90760500e+09  1.00e-11 1.43e+00  1.33e+04     7s
   3   2.89633512e+08 -2.57389699e+08  1.82e-10 6.46e-03  8.31e+02     7s
   4   4.82188891e+07 -1.53401265e+07  2.18e-11 1.70e-03  9.22e+01     7s
   5   4.06099205e+07 -6.53442983e+06  7.09e-11 1.20e-03  6.82e+01     7s
   6   2.93913809e+07  2.33748915e+06  5.42e-10 1.01e-14  3.89e+01     7s
   7   2.60658565e+07  3.43612371e+06  2.13e-09 1.05e-14  3.26e+01     8s
   8   2.29244603e+07  6.13983798e+06  3.75e-09 3.28e-05  2.41e+01     8s
   9   2.06627201e+07  7.21133683e+06  1.89e-08 4.92e-05  1.93e+01     8s
  10   2.00021685e+07  7.52399761e+06  3.35e-08 4.83e-05  1.79e+01     8s
  11   1.84274201e+07  8.39231895e+06  8.00e-08 4.42e-05  1.44e+01     8s
  12   1.75784364e+07  8.63307806e+06  1.30e-07 3.61e-05  1.28e+01     9s
  13   1.67419341e+07  9.21300282e+06  1.47e-07 3.13e-05  1.08e+01     9s
  14   1.61581546e+07  9.87865241e+06  1.30e-07 2.51e-05  9.01e+00     9s
  15   1.55313736e+07  1.02451327e+07  8.59e-08 1.59e-05  7.59e+00     9s
  16   1.51795587e+07  1.03339554e+07  7.39e-08 1.40e-05  6.95e+00    10s
  17   1.47587852e+07  1.05278162e+07  8.21e-08 1.28e-05  6.07e+00    10s
  18   1.45465608e+07  1.08508814e+07  6.91e-08 7.00e-06  5.30e+00    10s
  19   1.42882059e+07  1.10781936e+07  7.08e-08 6.02e-06  4.61e+00    10s
  20   1.40173136e+07  1.13102205e+07  1.45e-07 2.54e-06  3.89e+00    11s
  21   1.38347728e+07  1.15385405e+07  8.97e-08 1.97e-06  3.30e+00    11s
  22   1.36463009e+07  1.16491794e+07  7.53e-08 3.64e-07  2.87e+00    11s
  23   1.35962922e+07  1.18144966e+07  8.80e-08 1.01e-14  2.56e+00    11s
  24   1.34823332e+07  1.19326835e+07  9.25e-08 1.01e-14  2.22e+00    12s
  25   1.33654627e+07  1.19616949e+07  4.04e-07 1.06e-14  2.02e+00    12s
  26   1.32893311e+07  1.20814503e+07  7.10e-07 1.08e-14  1.73e+00    12s
  27   1.32445417e+07  1.22400290e+07  7.86e-07 1.06e-14  1.44e+00    12s
  28   1.30884088e+07  1.23457140e+07  7.63e-07 9.80e-15  1.07e+00    12s
  29   1.30385947e+07  1.24126028e+07  8.10e-07 9.57e-15  8.98e-01    13s
  30   1.29705643e+07  1.25023938e+07  1.29e-06 8.80e-15  6.72e-01    13s
  31   1.29120045e+07  1.25352084e+07  9.87e-07 1.07e-14  5.41e-01    13s
  32   1.28999428e+07  1.25863929e+07  1.01e-06 8.94e-15  4.50e-01    13s
  33   1.28677069e+07  1.25984739e+07  8.91e-07 9.37e-15  3.86e-01    14s
  34   1.28264892e+07  1.26331632e+07  4.62e-07 9.19e-15  2.77e-01    14s
  35   1.28137402e+07  1.26726967e+07  3.54e-07 9.96e-15  2.02e-01    14s
  36   1.27986313e+07  1.27034574e+07  4.81e-07 1.07e-14  1.36e-01    14s
  37   1.27856352e+07  1.27138724e+07  7.69e-07 8.96e-15  1.03e-01    15s
  38   1.27813146e+07  1.27183848e+07  5.59e-07 8.24e-15  9.02e-02    15s
  39   1.27599842e+07  1.27222650e+07  8.79e-07 8.88e-15  5.41e-02    15s
  40   1.27514628e+07  1.27244938e+07  7.51e-07 1.16e-14  3.87e-02    15s
  41   1.27449987e+07  1.27295389e+07  9.33e-07 9.82e-15  2.22e-02    16s
  42   1.27427025e+07  1.27310512e+07  6.31e-07 1.01e-14  1.67e-02    16s
  43   1.27399337e+07  1.27320086e+07  5.67e-07 1.12e-14  1.14e-02    16s
  44   1.27393254e+07  1.27327829e+07  4.91e-07 9.14e-15  9.38e-03    16s
  45   1.27378059e+07  1.27340538e+07  2.76e-07 9.49e-15  5.38e-03    16s
  46   1.27370793e+07  1.27346343e+07  1.89e-07 9.48e-15  3.50e-03    17s
  47   1.27368429e+07  1.27347789e+07  1.61e-07 8.85e-15  2.96e-03    17s
  48   1.27365519e+07  1.27351521e+07  1.24e-07 8.64e-15  2.00e-03    17s
  49   1.27359506e+07  1.27353003e+07  5.10e-08 9.97e-15  9.32e-04    17s
  50   1.27356719e+07  1.27354299e+07  1.69e-08 9.24e-15  3.47e-04    17s
  51   1.27355766e+07  1.27354741e+07  5.81e-09 1.07e-14  1.47e-04    18s
  52   1.27355385e+07  1.27355118e+07  1.58e-09 1.11e-14  3.83e-05    18s
  53   1.27355258e+07  1.27355199e+07  2.74e-10 1.05e-14  8.52e-06    18s
  54   1.27355231e+07  1.27355218e+07  1.82e-11 1.35e-11  1.93e-06    18s
  55   1.27355229e+07  1.27355228e+07  6.37e-12 2.46e-11  9.32e-08    18s
  56   1.27355229e+07  1.27355229e+07  1.79e-09 5.54e-10  4.02e-12    19s

Barrier solved model in 56 iterations and 18.64 seconds (12.48 work units)
Optimal objective 1.27355229e+07

Crossover log...

   14119 DPushes remaining with DInf 0.0000000e+00                19s
       0 DPushes remaining with DInf 0.0000000e+00                19s

    1261 PPushes remaining with PInf 0.0000000e+00                19s
       0 PPushes remaining with PInf 0.0000000e+00                19s

  Push phase complete: Pinf 0.0000000e+00, Dinf 7.1617035e-11     19s

Iteration    Objective       Primal Inf.    Dual Inf.      Time
    9813    1.2735523e+07   0.000000e+00   0.000000e+00     19s

Use crossover to convert LP symmetric solution to basic solution...
Crossover log...

       0 DPushes remaining with DInf 0.0000000e+00                20s

  226402 PPushes remaining with PInf 0.0000000e+00                20s
    7961 PPushes remaining with PInf 0.0000000e+00                25s
       0 PPushes remaining with PInf 0.0000000e+00                29s

  Push phase complete: Pinf 0.0000000e+00, Dinf 1.1508899e-10     29s

Iteration    Objective       Primal Inf.    Dual Inf.      Time
  236218    1.2735523e+07   0.000000e+00   0.000000e+00     30s

Solved in 236218 iterations and 30.20 seconds (22.42 work units)
Optimal objective  1.273552290e+07

User-callback calls 243530, time in user-callback 0.05 sec

Gurobi 10.0.1 (win64) logging started Sat Dec 30 18:37:50 2023

Set parameter LogFile to value "outputs/THESIS/symmetry1/gurobi/20weeks_ramping.txt"

Gurobi 10.0.1 (win64) logging started Sat Dec 30 18:37:58 2023

Set parameter LogFile to value "outputs/THESIS/symmetry1/gurobi/20weeks_ramping.txt"
Gurobi Optimizer version 10.0.1 build v10.0.1rc0 (win64)

CPU model: AMD Ryzen 7 5700U with Radeon Graphics, instruction set [SSE2|AVX|AVX2]
Thread count: 8 physical cores, 16 logical processors, using up to 16 threads

Optimize a model with 1145548 rows, 574669 columns and 4024747 nonzeros
Model fingerprint: 0xd7403da8
Coefficient statistics:
  Matrix range     [1e-04, 1e+04]
  Objective range  [1e+00, 1e+00]
  Bounds range     [1e+02, 7e+04]
  RHS range        [1e+03, 7e+04]
Presolve removed 2 rows and 2 columns
Presolve time: 2.22s
Presolved: 1145546 rows, 574667 columns, 3597918 nonzeros

Ordering time: 1.98s

Barrier statistics:
 Dense cols : 20
 AA' NZ     : 1.290e+06
 Factor NZ  : 8.539e+06 (roughly 300 MB of memory)
 Factor Ops : 6.036e+08 (less than 1 second per iteration)
 Threads    : 8

                  Objective                Residual
Iter       Primal          Dual         Primal    Dual     Compl     Time
   0   7.48735092e+09 -4.89866301e+10  2.21e+04 9.43e+00  9.11e+05     6s
   1   1.57931697e+09 -3.81891040e+10  1.75e+03 2.14e+01  1.17e+05     7s
   2   1.10637743e+09 -6.90760500e+09  1.00e-11 1.43e+00  1.33e+04     7s
   3   2.89633512e+08 -2.57389699e+08  1.82e-10 6.46e-03  8.31e+02     7s
   4   4.82188891e+07 -1.53401265e+07  2.18e-11 1.70e-03  9.22e+01     7s
   5   4.06099205e+07 -6.53442983e+06  7.09e-11 1.20e-03  6.82e+01     7s
   6   2.93913809e+07  2.33748915e+06  5.42e-10 1.01e-14  3.89e+01     7s
   7   2.60658565e+07  3.43612371e+06  2.13e-09 1.05e-14  3.26e+01     8s
   8   2.29244603e+07  6.13983798e+06  3.75e-09 3.28e-05  2.41e+01     8s
   9   2.06627201e+07  7.21133683e+06  1.89e-08 4.92e-05  1.93e+01     8s
  10   2.00021685e+07  7.52399761e+06  3.35e-08 4.83e-05  1.79e+01     8s
  11   1.84274201e+07  8.39231895e+06  8.00e-08 4.42e-05  1.44e+01     8s
  12   1.75784364e+07  8.63307806e+06  1.30e-07 3.61e-05  1.28e+01     9s
  13   1.67419341e+07  9.21300282e+06  1.47e-07 3.13e-05  1.08e+01     9s
  14   1.61581546e+07  9.87865241e+06  1.30e-07 2.51e-05  9.01e+00     9s
  15   1.55313736e+07  1.02451327e+07  8.59e-08 1.59e-05  7.59e+00     9s
  16   1.51795587e+07  1.03339554e+07  7.39e-08 1.40e-05  6.95e+00    10s
  17   1.47587852e+07  1.05278162e+07  8.21e-08 1.28e-05  6.07e+00    10s
  18   1.45465608e+07  1.08508814e+07  6.91e-08 7.00e-06  5.30e+00    10s
  19   1.42882059e+07  1.10781936e+07  7.08e-08 6.02e-06  4.61e+00    10s
  20   1.40173136e+07  1.13102205e+07  1.45e-07 2.54e-06  3.89e+00    11s
  21   1.38347728e+07  1.15385405e+07  8.97e-08 1.97e-06  3.30e+00    11s
  22   1.36463009e+07  1.16491794e+07  7.53e-08 3.64e-07  2.87e+00    11s
  23   1.35962922e+07  1.18144966e+07  8.80e-08 1.01e-14  2.56e+00    11s
  24   1.34823332e+07  1.19326835e+07  9.25e-08 1.01e-14  2.22e+00    11s
  25   1.33654627e+07  1.19616949e+07  4.04e-07 1.06e-14  2.02e+00    12s
  26   1.32893311e+07  1.20814503e+07  7.10e-07 1.08e-14  1.73e+00    12s
  27   1.32445417e+07  1.22400290e+07  7.86e-07 1.06e-14  1.44e+00    12s
  28   1.30884088e+07  1.23457140e+07  7.63e-07 9.80e-15  1.07e+00    12s
  29   1.30385947e+07  1.24126028e+07  8.10e-07 9.57e-15  8.98e-01    13s
  30   1.29705643e+07  1.25023938e+07  1.29e-06 8.80e-15  6.72e-01    13s
  31   1.29120045e+07  1.25352084e+07  9.87e-07 1.07e-14  5.41e-01    13s
  32   1.28999428e+07  1.25863929e+07  1.01e-06 8.94e-15  4.50e-01    13s
  33   1.28677069e+07  1.25984739e+07  8.91e-07 9.37e-15  3.86e-01    14s
  34   1.28264892e+07  1.26331632e+07  4.62e-07 9.19e-15  2.77e-01    14s
  35   1.28137402e+07  1.26726967e+07  3.54e-07 9.96e-15  2.02e-01    14s
  36   1.27986313e+07  1.27034574e+07  4.81e-07 1.07e-14  1.36e-01    14s
  37   1.27856352e+07  1.27138724e+07  7.69e-07 8.96e-15  1.03e-01    15s
  38   1.27813146e+07  1.27183848e+07  5.59e-07 8.24e-15  9.02e-02    15s
  39   1.27599842e+07  1.27222650e+07  8.79e-07 8.88e-15  5.41e-02    15s
  40   1.27514628e+07  1.27244938e+07  7.51e-07 1.16e-14  3.87e-02    15s
  41   1.27449987e+07  1.27295389e+07  9.33e-07 9.82e-15  2.22e-02    16s
  42   1.27427025e+07  1.27310512e+07  6.31e-07 1.01e-14  1.67e-02    16s
  43   1.27399337e+07  1.27320086e+07  5.67e-07 1.12e-14  1.14e-02    16s
  44   1.27393254e+07  1.27327829e+07  4.91e-07 9.14e-15  9.38e-03    16s
  45   1.27378059e+07  1.27340538e+07  2.76e-07 9.49e-15  5.38e-03    16s
  46   1.27370793e+07  1.27346343e+07  1.89e-07 9.48e-15  3.50e-03    17s
  47   1.27368429e+07  1.27347789e+07  1.61e-07 8.85e-15  2.96e-03    17s
  48   1.27365519e+07  1.27351521e+07  1.24e-07 8.64e-15  2.00e-03    17s
  49   1.27359506e+07  1.27353003e+07  5.10e-08 9.97e-15  9.32e-04    17s
  50   1.27356719e+07  1.27354299e+07  1.69e-08 9.24e-15  3.47e-04    17s
  51   1.27355766e+07  1.27354741e+07  5.81e-09 1.07e-14  1.47e-04    18s
  52   1.27355385e+07  1.27355118e+07  1.58e-09 1.11e-14  3.83e-05    18s
  53   1.27355258e+07  1.27355199e+07  2.74e-10 1.05e-14  8.52e-06    18s
  54   1.27355231e+07  1.27355218e+07  1.82e-11 1.35e-11  1.93e-06    18s
  55   1.27355229e+07  1.27355228e+07  6.37e-12 2.46e-11  9.32e-08    18s
  56   1.27355229e+07  1.27355229e+07  1.79e-09 5.54e-10  4.02e-12    19s

Barrier solved model in 56 iterations and 18.63 seconds (12.48 work units)
Optimal objective 1.27355229e+07

Crossover log...

   14119 DPushes remaining with DInf 0.0000000e+00                19s
       0 DPushes remaining with DInf 0.0000000e+00                19s

    1261 PPushes remaining with PInf 0.0000000e+00                19s
       0 PPushes remaining with PInf 0.0000000e+00                19s

  Push phase complete: Pinf 0.0000000e+00, Dinf 7.1617035e-11     19s

Iteration    Objective       Primal Inf.    Dual Inf.      Time
    9813    1.2735523e+07   0.000000e+00   0.000000e+00     19s

Use crossover to convert LP symmetric solution to basic solution...
Crossover log...

       0 DPushes remaining with DInf 0.0000000e+00                20s

  226402 PPushes remaining with PInf 0.0000000e+00                21s
    7961 PPushes remaining with PInf 0.0000000e+00                25s
       0 PPushes remaining with PInf 0.0000000e+00                29s

  Push phase complete: Pinf 0.0000000e+00, Dinf 1.1508899e-10     29s

Iteration    Objective       Primal Inf.    Dual Inf.      Time
  236218    1.2735523e+07   0.000000e+00   0.000000e+00     31s

Solved in 236218 iterations and 30.64 seconds (22.42 work units)
Optimal objective  1.273552290e+07

User-callback calls 243511, time in user-callback 0.04 sec

Gurobi 10.0.1 (win64) logging started Sat Dec 30 18:38:33 2023

Set parameter LogFile to value "outputs/THESIS/symmetry1/gurobi/20weeks_ramping.txt"

Gurobi 10.0.1 (win64) logging started Sat Dec 30 18:38:43 2023

Set parameter LogFile to value "outputs/THESIS/symmetry1/gurobi/20weeks_ramping.txt"
Gurobi Optimizer version 10.0.1 build v10.0.1rc0 (win64)

CPU model: AMD Ryzen 7 5700U with Radeon Graphics, instruction set [SSE2|AVX|AVX2]
Thread count: 8 physical cores, 16 logical processors, using up to 16 threads

Optimize a model with 1145548 rows, 574669 columns and 4024747 nonzeros
Model fingerprint: 0xd7403da8
Coefficient statistics:
  Matrix range     [1e-04, 1e+04]
  Objective range  [1e+00, 1e+00]
  Bounds range     [1e+02, 7e+04]
  RHS range        [1e+03, 7e+04]
Presolve removed 2 rows and 2 columns
Presolve time: 2.20s
Presolved: 1145546 rows, 574667 columns, 3597918 nonzeros

Ordering time: 1.94s

Barrier statistics:
 Dense cols : 20
 AA' NZ     : 1.290e+06
 Factor NZ  : 8.539e+06 (roughly 300 MB of memory)
 Factor Ops : 6.036e+08 (less than 1 second per iteration)
 Threads    : 8

                  Objective                Residual
Iter       Primal          Dual         Primal    Dual     Compl     Time
   0   7.48735092e+09 -4.89866301e+10  2.21e+04 9.43e+00  9.11e+05     6s
   1   1.57931697e+09 -3.81891040e+10  1.75e+03 2.14e+01  1.17e+05     6s
   2   1.10637743e+09 -6.90760500e+09  1.00e-11 1.43e+00  1.33e+04     7s
   3   2.89633512e+08 -2.57389699e+08  1.82e-10 6.46e-03  8.31e+02     7s
   4   4.82188891e+07 -1.53401265e+07  2.18e-11 1.70e-03  9.22e+01     7s
   5   4.06099205e+07 -6.53442983e+06  7.09e-11 1.20e-03  6.82e+01     7s
   6   2.93913809e+07  2.33748915e+06  5.42e-10 1.01e-14  3.89e+01     7s
   7   2.60658565e+07  3.43612371e+06  2.13e-09 1.05e-14  3.26e+01     8s
   8   2.29244603e+07  6.13983798e+06  3.75e-09 3.28e-05  2.41e+01     8s
   9   2.06627201e+07  7.21133683e+06  1.89e-08 4.92e-05  1.93e+01     8s
  10   2.00021685e+07  7.52399761e+06  3.35e-08 4.83e-05  1.79e+01     8s
  11   1.84274201e+07  8.39231895e+06  8.00e-08 4.42e-05  1.44e+01     8s
  12   1.75784364e+07  8.63307806e+06  1.30e-07 3.61e-05  1.28e+01     9s
  13   1.67419341e+07  9.21300282e+06  1.47e-07 3.13e-05  1.08e+01     9s
  14   1.61581546e+07  9.87865241e+06  1.30e-07 2.51e-05  9.01e+00     9s
  15   1.55313736e+07  1.02451327e+07  8.59e-08 1.59e-05  7.59e+00     9s
  16   1.51795587e+07  1.03339554e+07  7.39e-08 1.40e-05  6.95e+00    10s
  17   1.47587852e+07  1.05278162e+07  8.21e-08 1.28e-05  6.07e+00    10s
  18   1.45465608e+07  1.08508814e+07  6.91e-08 7.00e-06  5.30e+00    10s
  19   1.42882059e+07  1.10781936e+07  7.08e-08 6.02e-06  4.61e+00    10s
  20   1.40173136e+07  1.13102205e+07  1.45e-07 2.54e-06  3.89e+00    11s
  21   1.38347728e+07  1.15385405e+07  8.97e-08 1.97e-06  3.30e+00    11s
  22   1.36463009e+07  1.16491794e+07  7.53e-08 3.64e-07  2.87e+00    11s
  23   1.35962922e+07  1.18144966e+07  8.80e-08 1.01e-14  2.56e+00    11s
  24   1.34823332e+07  1.19326835e+07  9.25e-08 1.01e-14  2.22e+00    12s
  25   1.33654627e+07  1.19616949e+07  4.04e-07 1.06e-14  2.02e+00    12s
  26   1.32893311e+07  1.20814503e+07  7.10e-07 1.08e-14  1.73e+00    12s
  27   1.32445417e+07  1.22400290e+07  7.86e-07 1.06e-14  1.44e+00    12s
  28   1.30884088e+07  1.23457140e+07  7.63e-07 9.80e-15  1.07e+00    12s
  29   1.30385947e+07  1.24126028e+07  8.10e-07 9.57e-15  8.98e-01    13s
  30   1.29705643e+07  1.25023938e+07  1.29e-06 8.80e-15  6.72e-01    13s
  31   1.29120045e+07  1.25352084e+07  9.87e-07 1.07e-14  5.41e-01    13s
  32   1.28999428e+07  1.25863929e+07  1.01e-06 8.94e-15  4.50e-01    13s
  33   1.28677069e+07  1.25984739e+07  8.91e-07 9.37e-15  3.86e-01    14s
  34   1.28264892e+07  1.26331632e+07  4.62e-07 9.19e-15  2.77e-01    14s
  35   1.28137402e+07  1.26726967e+07  3.54e-07 9.96e-15  2.02e-01    14s
  36   1.27986313e+07  1.27034574e+07  4.81e-07 1.07e-14  1.36e-01    14s
  37   1.27856352e+07  1.27138724e+07  7.69e-07 8.96e-15  1.03e-01    15s
  38   1.27813146e+07  1.27183848e+07  5.59e-07 8.24e-15  9.02e-02    15s
  39   1.27599842e+07  1.27222650e+07  8.79e-07 8.88e-15  5.41e-02    15s
  40   1.27514628e+07  1.27244938e+07  7.51e-07 1.16e-14  3.87e-02    16s
  41   1.27449987e+07  1.27295389e+07  9.33e-07 9.82e-15  2.22e-02    16s
  42   1.27427025e+07  1.27310512e+07  6.31e-07 1.01e-14  1.67e-02    16s
  43   1.27399337e+07  1.27320086e+07  5.67e-07 1.12e-14  1.14e-02    16s
  44   1.27393254e+07  1.27327829e+07  4.91e-07 9.14e-15  9.38e-03    16s
  45   1.27378059e+07  1.27340538e+07  2.76e-07 9.49e-15  5.38e-03    17s
  46   1.27370793e+07  1.27346343e+07  1.89e-07 9.48e-15  3.50e-03    17s
  47   1.27368429e+07  1.27347789e+07  1.61e-07 8.85e-15  2.96e-03    17s
  48   1.27365519e+07  1.27351521e+07  1.24e-07 8.64e-15  2.00e-03    17s
  49   1.27359506e+07  1.27353003e+07  5.10e-08 9.97e-15  9.32e-04    17s
  50   1.27356719e+07  1.27354299e+07  1.69e-08 9.24e-15  3.47e-04    18s
  51   1.27355766e+07  1.27354741e+07  5.81e-09 1.07e-14  1.47e-04    18s
  52   1.27355385e+07  1.27355118e+07  1.58e-09 1.11e-14  3.83e-05    18s
  53   1.27355258e+07  1.27355199e+07  2.74e-10 1.05e-14  8.52e-06    18s
  54   1.27355231e+07  1.27355218e+07  1.82e-11 1.35e-11  1.93e-06    18s
  55   1.27355229e+07  1.27355228e+07  6.37e-12 2.46e-11  9.32e-08    19s
  56   1.27355229e+07  1.27355229e+07  1.79e-09 5.54e-10  4.02e-12    19s

Barrier solved model in 56 iterations and 18.75 seconds (12.48 work units)
Optimal objective 1.27355229e+07

Crossover log...

   14119 DPushes remaining with DInf 0.0000000e+00                19s
       0 DPushes remaining with DInf 0.0000000e+00                19s

    1261 PPushes remaining with PInf 0.0000000e+00                19s
       0 PPushes remaining with PInf 0.0000000e+00                19s

  Push phase complete: Pinf 0.0000000e+00, Dinf 7.1617035e-11     19s

Iteration    Objective       Primal Inf.    Dual Inf.      Time
    9813    1.2735523e+07   0.000000e+00   0.000000e+00     19s

Use crossover to convert LP symmetric solution to basic solution...
Crossover log...

       0 DPushes remaining with DInf 0.0000000e+00                20s

  226402 PPushes remaining with PInf 0.0000000e+00                20s
    7961 PPushes remaining with PInf 0.0000000e+00                25s
       0 PPushes remaining with PInf 0.0000000e+00                29s

  Push phase complete: Pinf 0.0000000e+00, Dinf 1.1508899e-10     29s

Iteration    Objective       Primal Inf.    Dual Inf.      Time
  236218    1.2735523e+07   0.000000e+00   0.000000e+00     30s

Solved in 236218 iterations and 30.26 seconds (22.42 work units)
Optimal objective  1.273552290e+07

User-callback calls 243544, time in user-callback 0.03 sec
